bestever    1657    in generation 0
[11, 10, 13, 9, 7, 20, 12, 5, 16, 8, 2, 19, 4, 15, 3, 14, 17, 6, 1, 18, 11, 10, 13, 9, 7, 20, 12, 5, 16, 8, 2, 19, 4, 15, 3, 14, 17, 6, 1, 18, 11, 10, 13, 9, 7, 20, 12, 5, 16, 8, 2, 19, 4, 15, 3, 14, 17, 6, 1, 18, 11, 10, 13, 9, 7, 20, 12, 5, 16, 8, 2, 19, 4, 15, 3, 14, 17, 6, 1, 18, 11, 10, 13, 9, 7, 20, 12, 5, 16, 8, 2, 19, 4, 15, 3, 14, 17, 6, 1, 18, 11, 10, 13, 9, 7, 20, 12, 5, 16, 8, 2, 19, 4, 15, 3, 14, 17, 6, 1, 18, 11, 10, 13, 9, 7, 20, 12, 5, 16, 8, 2, 19, 4, 15, 3, 14, 17, 6, 1, 18, 11, 10, 13, 9, 7, 20, 12, 5, 16, 8, 2, 19, 4, 15, 3, 14, 17, 6, 1, 18, 11, 10, 13, 9, 7, 20, 12, 5, 16, 8, 2, 19, 4, 15, 3, 14, 17, 6, 1, 18, 11, 10, 13, 9, 7, 20, 12, 5, 16, 8, 2, 19, 4, 15, 3, 14, 17, 6, 1, 18]
bestever    1653    in generation 105
[11, 10, 13, 9, 7, 20, 12, 5, 8, 2, 19, 4, 16, 15, 3, 14, 17, 6, 1, 18, 11, 10, 13, 9, 7, 20, 12, 5, 8, 2, 19, 4, 16, 15, 3, 14, 17, 6, 1, 18, 11, 10, 13, 9, 7, 20, 12, 5, 8, 2, 19, 4, 16, 15, 3, 14, 17, 6, 1, 18, 11, 10, 13, 9, 7, 20, 12, 5, 8, 2, 19, 4, 16, 15, 3, 14, 17, 6, 1, 18, 11, 10, 13, 9, 7, 20, 12, 5, 8, 2, 19, 4, 16, 15, 3, 14, 17, 6, 1, 18, 11, 10, 13, 9, 7, 20, 12, 5, 8, 2, 19, 4, 16, 15, 3, 14, 17, 6, 1, 18, 11, 10, 13, 9, 7, 20, 12, 5, 8, 2, 19, 4, 16, 15, 3, 14, 17, 6, 1, 18, 11, 10, 13, 9, 7, 20, 12, 5, 8, 2, 19, 4, 16, 15, 3, 14, 17, 6, 1, 18, 11, 10, 13, 9, 7, 20, 12, 5, 8, 2, 19, 4, 16, 15, 3, 14, 17, 6, 1, 18, 11, 10, 13, 9, 7, 20, 12, 5, 8, 2, 19, 4, 16, 15, 3, 14, 17, 6, 1, 18]
bestever    1651    in generation 208
[11, 10, 13, 9, 7, 20, 12, 5, 19, 8, 2, 4, 16, 15, 3, 14, 17, 6, 1, 18, 11, 10, 13, 9, 7, 20, 12, 5, 19, 8, 2, 4, 16, 15, 3, 14, 17, 6, 1, 18, 11, 10, 13, 9, 7, 20, 12, 5, 19, 8, 2, 4, 16, 15, 3, 14, 17, 6, 1, 18, 11, 10, 13, 9, 7, 20, 12, 5, 19, 8, 2, 4, 16, 15, 3, 14, 17, 6, 1, 18, 11, 10, 13, 9, 7, 20, 12, 5, 19, 8, 2, 4, 16, 15, 3, 14, 17, 6, 1, 18, 11, 10, 13, 9, 7, 20, 12, 5, 19, 8, 2, 4, 16, 15, 3, 14, 17, 6, 1, 18, 11, 10, 13, 9, 7, 20, 12, 5, 19, 8, 2, 4, 16, 15, 3, 14, 17, 6, 1, 18, 11, 10, 13, 9, 7, 20, 12, 5, 19, 8, 2, 4, 16, 15, 3, 14, 17, 6, 1, 18, 11, 10, 13, 9, 7, 20, 12, 5, 19, 8, 2, 4, 16, 15, 3, 14, 17, 6, 1, 18, 11, 10, 13, 9, 7, 20, 12, 5, 19, 8, 2, 4, 16, 15, 3, 14, 17, 6, 1, 18]
bestever    1619    in generation 310
[11, 13, 10, 9, 7, 20, 12, 5, 19, 8, 2, 4, 16, 15, 3, 14, 17, 6, 1, 18, 11, 13, 10, 9, 7, 20, 12, 5, 19, 8, 2, 4, 16, 15, 3, 14, 17, 6, 1, 18, 11, 13, 10, 9, 7, 20, 12, 5, 19, 8, 2, 4, 16, 15, 3, 14, 17, 6, 1, 18, 11, 13, 10, 9, 7, 20, 12, 5, 19, 8, 2, 4, 16, 15, 3, 14, 17, 6, 1, 18, 11, 13, 10, 9, 7, 20, 12, 5, 19, 8, 2, 4, 16, 15, 3, 14, 17, 6, 1, 18, 11, 13, 10, 9, 7, 20, 12, 5, 19, 8, 2, 4, 16, 15, 3, 14, 17, 6, 1, 18, 11, 13, 10, 9, 7, 20, 12, 5, 19, 8, 2, 4, 16, 15, 3, 14, 17, 6, 1, 18, 11, 13, 10, 9, 7, 20, 12, 5, 19, 8, 2, 4, 16, 15, 3, 14, 17, 6, 1, 18, 11, 13, 10, 9, 7, 20, 12, 5, 19, 8, 2, 4, 16, 15, 3, 14, 17, 6, 1, 18, 11, 13, 10, 9, 7, 20, 12, 5, 19, 8, 2, 4, 16, 15, 3, 14, 17, 6, 1, 18]
bestever    1604    in generation 412
[11, 13, 10, 9, 7, 20, 12, 5, 19, 8, 2, 4, 16, 14, 15, 3, 17, 6, 1, 18, 11, 13, 10, 9, 7, 20, 12, 5, 19, 8, 2, 4, 16, 14, 15, 3, 17, 6, 1, 18, 11, 13, 10, 9, 7, 20, 12, 5, 19, 8, 2, 4, 16, 14, 15, 3, 17, 6, 1, 18, 11, 13, 10, 9, 7, 20, 12, 5, 19, 8, 2, 4, 16, 14, 15, 3, 17, 6, 1, 18, 11, 13, 10, 9, 7, 20, 12, 5, 19, 8, 2, 4, 16, 14, 15, 3, 17, 6, 1, 18, 11, 13, 10, 9, 7, 20, 12, 5, 19, 8, 2, 4, 16, 14, 15, 3, 17, 6, 1, 18, 11, 13, 10, 9, 7, 20, 12, 5, 19, 8, 2, 4, 16, 14, 15, 3, 17, 6, 1, 18, 11, 13, 10, 9, 7, 20, 12, 5, 19, 8, 2, 4, 16, 14, 15, 3, 17, 6, 1, 18, 11, 13, 10, 9, 7, 20, 12, 5, 19, 8, 2, 4, 16, 14, 15, 3, 17, 6, 1, 18, 11, 13, 10, 9, 7, 20, 12, 5, 19, 8, 2, 4, 16, 14, 15, 3, 17, 6, 1, 18]
bestever    1600    in generation 519
[11, 13, 10, 9, 8, 7, 20, 12, 5, 19, 2, 16, 14, 4, 15, 3, 17, 6, 1, 18, 11, 13, 10, 9, 8, 7, 20, 12, 5, 19, 2, 16, 14, 4, 15, 3, 17, 6, 1, 18, 11, 13, 10, 9, 8, 7, 20, 12, 5, 19, 2, 16, 14, 4, 15, 3, 17, 6, 18, 1, 11, 13, 10, 9, 8, 7, 20, 12, 5, 19, 2, 16, 14, 4, 15, 3, 17, 6, 1, 18, 11, 13, 10, 9, 8, 7, 20, 12, 5, 19, 2, 16, 14, 4, 15, 3, 17, 6, 1, 18, 11, 13, 10, 9, 8, 7, 20, 12, 5, 19, 2, 16, 14, 4, 15, 3, 17, 6, 1, 18, 11, 13, 10, 9, 8, 7, 20, 12, 5, 19, 2, 16, 14, 4, 15, 3, 17, 6, 1, 18, 11, 13, 10, 9, 8, 7, 20, 12, 5, 19, 2, 16, 14, 4, 15, 3, 17, 6, 1, 18, 11, 13, 10, 9, 8, 7, 20, 12, 5, 19, 2, 16, 14, 4, 15, 3, 17, 6, 1, 18, 10, 9, 8, 7, 20, 12, 5, 19, 2, 16, 11, 4, 13, 14, 15, 3, 17, 6, 1, 18]
bestever    1583    in generation 642
[11, 13, 10, 9, 8, 7, 20, 12, 19, 2, 16, 5, 14, 4, 15, 3, 17, 6, 1, 18, 11, 13, 10, 9, 8, 7, 20, 12, 19, 2, 16, 5, 14, 4, 15, 3, 17, 6, 1, 18, 11, 13, 10, 9, 8, 7, 20, 12, 19, 2, 16, 5, 14, 4, 15, 3, 17, 6, 1, 18, 11, 13, 10, 9, 8, 7, 20, 12, 19, 2, 16, 5, 14, 4, 15, 3, 17, 6, 1, 18, 11, 13, 10, 9, 8, 7, 20, 12, 19, 2, 16, 5, 14, 4, 15, 3, 17, 6, 1, 18, 11, 13, 10, 9, 8, 7, 20, 12, 19, 2, 16, 5, 14, 4, 15, 3, 17, 6, 1, 18, 11, 13, 10, 9, 8, 7, 20, 12, 19, 2, 16, 5, 14, 4, 15, 3, 17, 6, 1, 18, 11, 13, 10, 9, 8, 7, 20, 12, 19, 2, 16, 5, 14, 4, 15, 3, 17, 6, 1, 18, 11, 13, 10, 9, 8, 7, 20, 12, 19, 2, 16, 5, 14, 4, 15, 3, 17, 6, 1, 18, 10, 9, 8, 7, 20, 12, 19, 2, 16, 5, 11, 4, 13, 14, 15, 3, 17, 6, 1, 18]
bestever    1575    in generation 794
[11, 13, 10, 9, 7, 8, 20, 12, 19, 4, 2, 16, 5, 14, 15, 3, 6, 1, 18, 17, 11, 13, 10, 9, 7, 8, 20, 12, 19, 4, 2, 16, 5, 14, 15, 3, 6, 1, 18, 17, 11, 13, 10, 9, 7, 8, 20, 12, 19, 4, 2, 16, 5, 14, 15, 3, 6, 1, 18, 17, 11, 13, 10, 9, 7, 8, 20, 12, 19, 4, 2, 16, 5, 14, 15, 3, 6, 1, 18, 17, 11, 13, 10, 9, 7, 8, 20, 12, 19, 4, 2, 16, 5, 14, 15, 3, 6, 1, 18, 17, 11, 13, 10, 9, 7, 8, 20, 12, 19, 4, 2, 16, 5, 14, 15, 3, 6, 1, 18, 17, 11, 13, 10, 9, 7, 8, 20, 12, 19, 4, 2, 16, 5, 14, 15, 3, 6, 1, 18, 17, 11, 13, 10, 9, 7, 8, 20, 12, 19, 4, 2, 16, 5, 14, 15, 3, 6, 1, 18, 17, 11, 13, 10, 9, 7, 8, 20, 12, 19, 4, 2, 16, 5, 14, 15, 3, 6, 1, 18, 17, 10, 9, 7, 8, 20, 12, 19, 2, 11, 4, 13, 16, 5, 14, 15, 3, 6, 1, 18, 17]
bestever    1559    in generation 922
[13, 10, 9, 8, 7, 20, 12, 19, 4, 2, 16, 11, 5, 14, 15, 3, 1, 6, 18, 17, 13, 10, 9, 8, 7, 20, 12, 19, 4, 2, 16, 11, 5, 14, 15, 3, 6, 1, 18, 17, 13, 10, 9, 8, 7, 20, 12, 19, 4, 2, 16, 11, 5, 14, 15, 3, 6, 1, 18, 17, 13, 10, 9, 8, 7, 20, 12, 19, 4, 2, 16, 11, 5, 14, 15, 3, 6, 1, 18, 17, 13, 10, 9, 8, 7, 20, 12, 19, 4, 2, 16, 11, 5, 14, 15, 3, 6, 1, 18, 17, 13, 10, 9, 8, 7, 20, 12, 19, 4, 2, 16, 11, 5, 14, 15, 3, 6, 1, 18, 17, 13, 10, 9, 8, 7, 20, 12, 19, 4, 2, 16, 11, 5, 14, 15, 3, 6, 1, 18, 17, 13, 10, 9, 8, 7, 20, 12, 19, 4, 2, 16, 11, 5, 14, 15, 3, 6, 1, 18, 17, 13, 10, 9, 8, 7, 20, 12, 19, 4, 2, 16, 11, 5, 14, 15, 3, 6, 1, 18, 17, 13, 10, 9, 8, 7, 20, 12, 19, 4, 2, 16, 11, 5, 14, 15, 3, 6, 1, 18, 17]
bestever    1553    in generation 1024
[13, 10, 9, 8, 7, 20, 12, 19, 4, 2, 16, 14, 11, 5, 15, 3, 1, 6, 18, 17, 13, 10, 9, 8, 7, 20, 12, 19, 4, 2, 16, 14, 11, 5, 15, 3, 6, 1, 18, 17, 13, 10, 9, 8, 7, 20, 12, 19, 4, 2, 16, 14, 11, 5, 15, 3, 6, 1, 18, 17, 13, 10, 9, 8, 7, 20, 12, 19, 4, 2, 16, 14, 11, 5, 15, 3, 6, 1, 18, 17, 13, 10, 9, 8, 7, 20, 12, 19, 4, 2, 16, 14, 11, 5, 15, 3, 6, 1, 18, 17, 13, 10, 9, 8, 7, 20, 12, 19, 4, 2, 16, 14, 11, 5, 15, 3, 6, 1, 18, 17, 13, 10, 9, 8, 7, 20, 12, 19, 4, 2, 16, 14, 11, 5, 15, 3, 6, 1, 18, 17, 13, 10, 9, 8, 7, 20, 12, 19, 4, 2, 16, 14, 11, 5, 15, 3, 6, 1, 18, 17, 13, 10, 9, 8, 7, 20, 12, 19, 4, 2, 16, 14, 11, 5, 15, 3, 6, 1, 18, 17, 13, 10, 9, 8, 7, 20, 12, 19, 4, 2, 16, 14, 11, 5, 15, 3, 6, 1, 18, 17]
bestever    1549    in generation 1132
[14, 13, 10, 9, 8, 7, 20, 12, 19, 16, 4, 2, 11, 5, 15, 3, 6, 1, 18, 17, 14, 13, 10, 9, 8, 7, 20, 12, 19, 16, 4, 2, 11, 5, 15, 3, 6, 1, 18, 17, 14, 13, 10, 9, 8, 7, 20, 12, 19, 16, 4, 2, 11, 5, 15, 3, 6, 1, 18, 17, 14, 13, 10, 9, 8, 7, 20, 12, 19, 16, 4, 2, 11, 5, 15, 3, 6, 1, 18, 17, 14, 13, 10, 9, 8, 7, 20, 12, 19, 16, 4, 2, 11, 5, 15, 3, 6, 1, 18, 17, 14, 13, 10, 9, 8, 7, 20, 12, 19, 16, 4, 2, 11, 5, 15, 3, 6, 1, 18, 17, 14, 13, 10, 9, 8, 7, 20, 12, 19, 16, 4, 2, 11, 5, 15, 3, 6, 1, 18, 17, 14, 13, 10, 9, 8, 7, 20, 12, 19, 16, 4, 2, 11, 5, 15, 3, 6, 1, 18, 17, 14, 13, 10, 9, 8, 7, 20, 12, 19, 16, 4, 2, 11, 5, 15, 3, 6, 1, 18, 17, 14, 13, 10, 9, 8, 7, 20, 12, 19, 16, 4, 2, 11, 5, 15, 3, 6, 1, 18, 17]
bestever    1547    in generation 1241
[14, 13, 10, 9, 7, 8, 20, 12, 19, 16, 4, 2, 11, 5, 15, 3, 6, 1, 18, 17, 14, 13, 10, 9, 7, 8, 20, 12, 19, 16, 4, 2, 11, 5, 15, 3, 6, 1, 18, 17, 14, 13, 10, 9, 7, 8, 20, 12, 19, 16, 4, 2, 11, 5, 15, 3, 6, 1, 18, 17, 14, 13, 10, 9, 7, 8, 20, 12, 19, 16, 4, 2, 11, 5, 15, 3, 6, 1, 18, 17, 14, 13, 10, 9, 7, 8, 20, 12, 19, 16, 4, 2, 11, 5, 15, 3, 6, 1, 18, 17, 14, 13, 10, 9, 7, 8, 20, 12, 19, 16, 4, 2, 11, 5, 15, 3, 6, 1, 18, 17, 14, 13, 10, 9, 7, 8, 20, 12, 19, 16, 4, 2, 11, 5, 15, 3, 6, 1, 18, 17, 14, 13, 10, 9, 7, 8, 20, 12, 19, 16, 4, 2, 11, 5, 15, 3, 6, 1, 18, 17, 14, 13, 10, 9, 7, 8, 20, 12, 19, 16, 4, 2, 11, 5, 15, 3, 6, 1, 18, 17, 14, 13, 10, 9, 7, 8, 20, 12, 19, 16, 4, 2, 11, 5, 15, 3, 6, 1, 18, 17]
bestever    1534    in generation 1346
[14, 13, 7, 10, 9, 8, 20, 12, 19, 16, 4, 2, 11, 5, 15, 3, 1, 18, 17, 6, 14, 13, 7, 10, 9, 8, 20, 12, 19, 16, 4, 2, 11, 5, 15, 3, 1, 18, 17, 6, 14, 13, 7, 10, 9, 8, 20, 12, 19, 16, 4, 2, 11, 5, 15, 3, 1, 18, 17, 6, 14, 13, 10, 9, 7, 8, 20, 12, 19, 16, 4, 2, 11, 5, 15, 3, 1, 18, 17, 6, 14, 13, 10, 9, 7, 8, 20, 12, 19, 16, 4, 2, 11, 5, 15, 3, 1, 18, 17, 6, 14, 13, 10, 9, 7, 8, 20, 12, 19, 16, 4, 2, 11, 5, 15, 3, 1, 18, 17, 6, 14, 13, 10, 9, 7, 8, 20, 12, 19, 16, 4, 2, 11, 5, 15, 3, 1, 18, 17, 6, 14, 13, 10, 9, 7, 8, 20, 12, 19, 16, 4, 2, 11, 5, 15, 3, 1, 18, 17, 6, 14, 13, 10, 9, 7, 8, 20, 12, 19, 16, 4, 2, 11, 5, 15, 3, 1, 18, 17, 6, 14, 13, 10, 9, 7, 8, 20, 12, 19, 16, 4, 2, 11, 5, 15, 3, 1, 18, 17, 6]
bestever    1524    in generation 1448
[14, 13, 10, 9, 7, 8, 20, 12, 19, 16, 4, 2, 11, 5, 15, 3, 1, 18, 6, 17, 14, 13, 10, 9, 7, 8, 20, 12, 19, 16, 4, 2, 11, 5, 15, 3, 1, 18, 6, 17, 14, 13, 10, 9, 7, 8, 20, 12, 19, 16, 4, 2, 11, 5, 15, 3, 1, 18, 6, 17, 14, 13, 10, 9, 7, 8, 20, 12, 19, 16, 4, 2, 11, 5, 15, 3, 1, 18, 6, 17, 14, 13, 10, 9, 7, 8, 20, 12, 19, 16, 4, 2, 11, 5, 15, 3, 1, 18, 6, 17, 14, 13, 10, 9, 7, 8, 20, 12, 19, 16, 4, 2, 11, 5, 15, 3, 1, 18, 6, 17, 14, 13, 10, 9, 7, 8, 20, 12, 19, 16, 4, 2, 11, 5, 15, 3, 1, 18, 6, 17, 14, 13, 10, 9, 7, 8, 20, 12, 19, 16, 4, 2, 11, 5, 15, 3, 1, 18, 6, 17, 14, 13, 9, 7, 8, 20, 12, 19, 10, 16, 4, 2, 11, 5, 15, 3, 1, 18, 6, 17, 14, 13, 9, 7, 8, 20, 12, 19, 10, 16, 4, 2, 11, 5, 15, 3, 1, 18, 6, 17]
bestever    1523    in generation 1551
[16, 14, 13, 10, 9, 7, 8, 20, 12, 19, 4, 2, 11, 5, 15, 3, 1, 18, 6, 17, 16, 14, 13, 10, 9, 7, 8, 20, 12, 19, 4, 2, 11, 5, 15, 3, 1, 18, 6, 17, 16, 14, 13, 10, 9, 7, 8, 20, 12, 19, 4, 2, 11, 5, 15, 3, 1, 18, 6, 17, 16, 14, 13, 10, 9, 7, 8, 20, 12, 19, 4, 2, 11, 5, 15, 3, 1, 18, 6, 17, 16, 14, 13, 10, 9, 7, 8, 20, 12, 19, 4, 2, 11, 5, 15, 3, 1, 18, 6, 17, 16, 14, 13, 10, 9, 7, 8, 20, 12, 19, 4, 2, 11, 5, 15, 3, 1, 18, 6, 17, 16, 14, 13, 10, 9, 7, 8, 20, 12, 19, 4, 2, 11, 5, 15, 3, 1, 18, 6, 17, 16, 14, 13, 10, 9, 7, 8, 20, 12, 19, 4, 2, 11, 5, 15, 3, 1, 18, 6, 17, 16, 14, 13, 9, 7, 8, 20, 12, 19, 10, 4, 2, 11, 5, 15, 3, 1, 18, 6, 17, 16, 14, 13, 9, 7, 8, 20, 12, 19, 10, 4, 2, 11, 5, 15, 3, 1, 18, 6, 17]
bestever    1517    in generation 1659
[16, 14, 13, 19, 10, 9, 7, 8, 20, 12, 4, 2, 11, 5, 15, 3, 1, 18, 6, 17, 16, 14, 13, 19, 10, 9, 7, 8, 20, 12, 4, 2, 11, 5, 15, 3, 1, 18, 6, 17, 16, 14, 13, 19, 10, 9, 7, 8, 20, 12, 4, 2, 11, 5, 15, 3, 1, 18, 6, 17, 16, 14, 13, 19, 10, 9, 7, 8, 20, 12, 4, 2, 11, 5, 15, 3, 1, 18, 6, 17, 16, 14, 13, 19, 10, 9, 7, 8, 20, 12, 4, 2, 11, 5, 15, 3, 1, 18, 6, 17, 16, 14, 13, 19, 10, 9, 7, 8, 20, 12, 4, 2, 11, 5, 15, 3, 1, 18, 6, 17, 16, 14, 13, 19, 10, 9, 7, 8, 20, 12, 4, 2, 11, 5, 15, 3, 1, 18, 6, 17, 16, 14, 13, 19, 10, 9, 7, 8, 20, 12, 4, 2, 11, 5, 15, 3, 1, 18, 6, 17, 16, 14, 19, 13, 9, 7, 8, 20, 12, 10, 4, 2, 11, 5, 15, 3, 1, 18, 6, 17, 16, 14, 19, 13, 9, 7, 8, 20, 12, 10, 4, 2, 11, 5, 15, 3, 1, 18, 6, 17]
bestever    1513    in generation 1701
[16, 14, 13, 19, 10, 9, 7, 8, 20, 12, 4, 2, 11, 5, 15, 3, 1, 18, 6, 17, 16, 14, 13, 19, 10, 9, 7, 8, 20, 12, 4, 2, 11, 5, 15, 3, 1, 18, 6, 16, 14, 13, 19, 17, 10, 9, 7, 8, 20, 12, 4, 2, 11, 5, 15, 3, 1, 18, 6, 17, 16, 14, 13, 19, 10, 9, 7, 8, 20, 12, 4, 2, 11, 5, 15, 3, 1, 18, 6, 17, 16, 14, 13, 19, 10, 9, 7, 8, 20, 12, 4, 2, 11, 5, 15, 3, 1, 18, 6, 17, 16, 14, 13, 16, 14, 13, 19, 10, 9, 7, 8, 20, 12, 4, 2, 11, 5, 15, 3, 1, 18, 6, 17, 19, 10, 9, 7, 8, 20, 12, 4, 2, 11, 5, 15, 3, 1, 18, 6, 16, 14, 13, 19, 17, 10, 9, 7, 8, 20, 12, 4, 2, 11, 5, 15, 3, 1, 18, 6, 17, 16, 14, 13, 19, 10, 9, 7, 8, 20, 12, 4, 2, 11, 5, 15, 3, 1, 18, 6, 17, 16, 14, 13, 19, 10, 9, 7, 8, 20, 12, 4, 2, 11, 5, 15, 3, 1, 18, 6, 17]
bestever    1511    in generation 1806
[16, 14, 13, 19, 10, 9, 7, 8, 2, 20, 12, 11, 5, 4, 15, 3, 1, 18, 6, 17, 16, 14, 13, 19, 10, 9, 7, 8, 2, 20, 12, 11, 5, 4, 15, 3, 1, 18, 6, 17, 16, 14, 13, 19, 10, 9, 7, 8, 2, 20, 12, 11, 5, 4, 15, 3, 1, 18, 6, 17, 16, 14, 13, 19, 10, 9, 7, 8, 2, 20, 12, 11, 5, 4, 15, 3, 1, 18, 6, 17, 16, 14, 13, 19, 10, 9, 7, 8, 2, 20, 12, 11, 5, 4, 15, 3, 1, 18, 6, 17, 16, 14, 13, 19, 10, 9, 7, 8, 2, 20, 12, 11, 5, 4, 15, 3, 1, 18, 6, 17, 16, 14, 13, 19, 10, 9, 7, 8, 2, 20, 12, 11, 5, 4, 15, 3, 1, 18, 6, 17, 16, 14, 13, 19, 10, 9, 7, 8, 2, 20, 12, 11, 5, 4, 15, 3, 1, 18, 6, 17, 16, 14, 13, 19, 10, 9, 7, 8, 2, 20, 12, 11, 5, 4, 15, 3, 1, 18, 6, 17, 16, 14, 13, 19, 10, 9, 7, 8, 2, 20, 12, 11, 5, 4, 15, 3, 1, 18, 6, 17]
bestever    1501    in generation 1910
[14, 16, 19, 13, 10, 9, 7, 8, 2, 20, 12, 11, 5, 4, 15, 3, 1, 18, 6, 17, 14, 16, 19, 13, 10, 9, 7, 8, 2, 20, 12, 11, 5, 4, 15, 3, 1, 18, 6, 17, 14, 16, 19, 13, 10, 9, 7, 8, 2, 20, 12, 11, 5, 4, 15, 3, 1, 18, 6, 17, 14, 16, 19, 13, 10, 9, 7, 8, 2, 20, 12, 11, 5, 4, 15, 3, 1, 18, 6, 17, 14, 16, 19, 13, 10, 9, 7, 8, 2, 20, 12, 11, 5, 4, 15, 3, 1, 18, 6, 17, 14, 16, 19, 13, 10, 9, 7, 8, 2, 20, 12, 11, 5, 4, 15, 3, 1, 18, 6, 17, 14, 16, 19, 13, 10, 9, 7, 8, 2, 20, 12, 11, 5, 4, 15, 3, 1, 18, 6, 17, 14, 16, 19, 13, 10, 9, 7, 8, 2, 20, 12, 11, 5, 4, 15, 3, 1, 18, 6, 17, 14, 16, 19, 13, 10, 9, 7, 8, 2, 20, 12, 11, 5, 4, 15, 3, 1, 18, 6, 17, 14, 16, 19, 13, 10, 9, 7, 8, 2, 20, 12, 11, 5, 4, 15, 3, 1, 18, 6, 17]
bestever    1497    in generation 2029
[14, 16, 19, 13, 10, 4, 9, 7, 8, 2, 20, 12, 11, 5, 15, 3, 1, 18, 6, 17, 14, 16, 19, 13, 10, 4, 9, 7, 8, 2, 20, 12, 11, 5, 15, 3, 1, 18, 6, 17, 14, 16, 19, 13, 10, 4, 9, 7, 8, 2, 20, 12, 11, 5, 15, 3, 1, 18, 6, 17, 14, 16, 19, 13, 10, 4, 9, 7, 8, 2, 20, 12, 11, 5, 15, 3, 1, 18, 6, 17, 14, 16, 19, 13, 10, 4, 9, 7, 8, 2, 20, 12, 11, 5, 15, 3, 1, 18, 6, 17, 14, 16, 19, 13, 10, 4, 9, 7, 8, 20, 2, 12, 11, 5, 15, 3, 1, 18, 6, 17, 16, 14, 19, 13, 10, 4, 9, 7, 8, 20, 2, 12, 11, 5, 15, 3, 1, 18, 6, 17, 16, 14, 19, 13, 10, 4, 9, 7, 8, 2, 20, 12, 11, 5, 15, 3, 1, 18, 6, 17, 14, 16, 19, 13, 10, 4, 9, 7, 8, 2, 20, 12, 11, 5, 15, 3, 1, 18, 6, 17, 14, 16, 19, 13, 10, 4, 9, 7, 8, 2, 20, 12, 11, 5, 15, 3, 1, 18, 6, 17]
bestever    1485    in generation 2138
[14, 16, 19, 13, 10, 4, 9, 7, 8, 20, 2, 12, 5, 11, 15, 3, 1, 18, 6, 17, 14, 16, 19, 13, 10, 4, 9, 7, 8, 20, 2, 12, 5, 11, 15, 3, 1, 18, 6, 17, 14, 16, 19, 13, 10, 4, 9, 7, 8, 20, 2, 12, 5, 11, 15, 3, 1, 18, 6, 17, 14, 16, 19, 13, 10, 4, 9, 7, 8, 20, 2, 12, 5, 11, 15, 3, 1, 18, 6, 17, 14, 16, 19, 13, 10, 4, 9, 7, 8, 2, 20, 12, 5, 11, 15, 3, 1, 18, 6, 17, 16, 14, 19, 13, 10, 4, 9, 7, 8, 2, 20, 12, 5, 11, 15, 3, 1, 18, 6, 17, 16, 14, 19, 13, 10, 4, 9, 7, 8, 2, 20, 12, 5, 11, 15, 3, 1, 18, 6, 17, 14, 16, 19, 13, 10, 4, 9, 7, 8, 2, 20, 12, 5, 11, 15, 3, 1, 18, 6, 17, 14, 16, 19, 13, 10, 4, 9, 7, 8, 2, 20, 12, 5, 11, 15, 3, 1, 18, 6, 17, 14, 16, 19, 13, 10, 4, 9, 7, 8, 2, 20, 12, 5, 11, 15, 3, 1, 18, 6, 17]
bestever    1475    in generation 2268
[16, 14, 19, 13, 10, 4, 9, 7, 8, 20, 2, 12, 5, 11, 15, 3, 1, 18, 6, 17, 16, 14, 19, 13, 10, 4, 9, 7, 8, 20, 2, 12, 5, 11, 15, 3, 1, 18, 6, 17, 16, 14, 19, 13, 10, 4, 9, 7, 8, 20, 2, 12, 5, 11, 15, 3, 1, 18, 6, 17, 16, 14, 19, 13, 10, 4, 9, 7, 20, 8, 2, 12, 5, 11, 15, 3, 1, 18, 6, 17, 16, 14, 19, 13, 10, 4, 9, 7, 8, 20, 2, 12, 5, 11, 15, 3, 1, 18, 6, 17, 16, 14, 19, 13, 10, 4, 9, 7, 8, 20, 2, 12, 5, 11, 15, 3, 1, 18, 6, 17, 16, 14, 19, 13, 10, 4, 9, 7, 8, 20, 2, 12, 5, 11, 15, 3, 1, 18, 6, 17, 16, 14, 19, 13, 10, 4, 9, 7, 8, 20, 2, 12, 5, 11, 15, 3, 1, 18, 6, 17, 16, 14, 19, 13, 10, 4, 9, 7, 8, 20, 2, 12, 5, 11, 15, 3, 1, 18, 6, 17, 16, 14, 19, 13, 10, 4, 9, 7, 8, 20, 2, 12, 5, 11, 15, 3, 1, 18, 6, 17]
bestever    1473    in generation 2389
[16, 14, 4, 13, 19, 10, 9, 7, 8, 2, 20, 12, 5, 11, 15, 3, 1, 18, 6, 17, 16, 14, 4, 13, 19, 10, 9, 7, 8, 2, 20, 12, 5, 11, 15, 3, 1, 18, 6, 17, 16, 14, 4, 13, 19, 10, 9, 7, 8, 2, 20, 12, 5, 11, 15, 3, 1, 18, 6, 17, 16, 14, 4, 13, 19, 10, 9, 7, 8, 2, 20, 12, 5, 11, 15, 3, 1, 18, 6, 17, 16, 14, 4, 13, 19, 10, 9, 7, 8, 2, 20, 12, 5, 11, 15, 3, 1, 18, 6, 17, 16, 14, 4, 13, 19, 10, 9, 7, 8, 2, 20, 12, 5, 11, 15, 3, 1, 18, 6, 17, 16, 14, 4, 13, 19, 10, 9, 7, 8, 2, 20, 12, 5, 11, 15, 3, 1, 18, 6, 17, 16, 14, 4, 13, 19, 10, 9, 7, 8, 2, 20, 12, 5, 11, 15, 3, 1, 18, 6, 17, 16, 14, 4, 13, 19, 10, 9, 7, 8, 2, 20, 12, 5, 11, 15, 3, 1, 18, 6, 17, 16, 14, 4, 13, 19, 10, 9, 7, 8, 2, 20, 12, 5, 11, 15, 3, 1, 18, 6, 17]
bestever    1469    in generation 2497
[16, 14, 4, 13, 10, 9, 7, 19, 8, 2, 20, 12, 5, 11, 15, 3, 1, 18, 6, 17, 16, 14, 4, 13, 10, 9, 7, 19, 8, 2, 20, 12, 5, 11, 15, 3, 1, 18, 6, 17, 16, 14, 4, 13, 10, 9, 7, 19, 8, 2, 20, 12, 5, 11, 15, 3, 1, 18, 6, 17, 16, 14, 4, 13, 10, 9, 7, 19, 8, 2, 20, 12, 5, 11, 15, 3, 1, 18, 6, 17, 16, 14, 4, 13, 10, 9, 7, 19, 8, 2, 20, 12, 5, 11, 15, 3, 1, 18, 6, 17, 16, 14, 4, 13, 10, 9, 7, 19, 8, 2, 20, 12, 5, 11, 15, 3, 1, 18, 6, 17, 16, 14, 4, 13, 10, 9, 7, 19, 8, 2, 20, 12, 5, 11, 15, 3, 1, 18, 6, 17, 16, 14, 4, 13, 10, 9, 7, 19, 8, 2, 20, 12, 5, 11, 15, 3, 1, 18, 6, 17, 16, 14, 4, 13, 10, 9, 7, 19, 8, 2, 20, 12, 5, 11, 15, 3, 1, 18, 6, 17, 16, 14, 4, 13, 10, 9, 7, 19, 8, 2, 20, 12, 5, 11, 15, 3, 1, 18, 6, 17]
bestever    1466    in generation 3631
[14, 13, 16, 4, 10, 9, 7, 8, 2, 20, 12, 19, 11, 5, 15, 3, 1, 18, 17, 6, 14, 13, 16, 4, 10, 9, 7, 8, 2, 20, 12, 19, 11, 5, 15, 3, 1, 18, 17, 6, 14, 16, 4, 13, 10, 9, 7, 8, 2, 20, 12, 19, 11, 5, 15, 3, 1, 18, 17, 6, 14, 16, 4, 13, 10, 9, 7, 8, 2, 20, 12, 19, 11, 5, 15, 3, 1, 18, 17, 6, 14, 4, 16, 13, 10, 9, 7, 8, 2, 20, 12, 19, 11, 5, 15, 3, 1, 18, 17, 6, 14, 4, 16, 13, 10, 9, 7, 8, 2, 20, 12, 19, 11, 5, 15, 3, 1, 18, 17, 6, 14, 16, 4, 13, 10, 9, 7, 8, 2, 20, 12, 19, 11, 5, 15, 3, 1, 18, 17, 6, 14, 16, 4, 13, 10, 9, 7, 8, 2, 20, 12, 19, 11, 5, 15, 3, 1, 18, 17, 6, 14, 16, 4, 13, 10, 9, 7, 8, 2, 20, 12, 19, 11, 5, 15, 3, 1, 18, 17, 6, 14, 16, 4, 13, 10, 9, 7, 8, 2, 20, 12, 19, 11, 5, 15, 3, 1, 18, 17, 6]
bestever    1459    in generation 3743
[16, 14, 13, 4, 10, 9, 7, 8, 2, 20, 12, 19, 11, 5, 15, 3, 1, 18, 17, 6, 16, 14, 13, 4, 10, 9, 7, 8, 2, 20, 12, 19, 11, 5, 15, 3, 1, 18, 17, 6, 16, 14, 4, 13, 10, 9, 7, 8, 2, 20, 12, 19, 11, 5, 15, 3, 1, 18, 17, 6, 16, 14, 4, 13, 10, 9, 7, 8, 2, 20, 12, 19, 11, 5, 15, 3, 1, 18, 17, 6, 16, 14, 4, 13, 10, 9, 7, 8, 2, 20, 12, 19, 11, 5, 15, 3, 1, 18, 17, 6, 16, 14, 4, 13, 10, 9, 7, 8, 2, 20, 12, 19, 11, 5, 15, 3, 1, 18, 17, 6, 16, 14, 4, 13, 10, 9, 7, 8, 2, 20, 12, 19, 11, 5, 15, 3, 1, 18, 17, 6, 16, 14, 4, 13, 10, 9, 7, 8, 2, 20, 12, 19, 11, 5, 15, 3, 1, 18, 17, 6, 16, 14, 4, 13, 10, 9, 7, 8, 2, 20, 12, 19, 11, 5, 15, 3, 1, 18, 17, 6, 16, 14, 4, 13, 10, 9, 7, 8, 2, 20, 12, 19, 11, 5, 15, 3, 1, 18, 17, 6]
bestever    1446    in generation 3862
[16, 14, 13, 4, 10, 9, 8, 7, 2, 20, 12, 19, 11, 5, 15, 3, 1, 18, 17, 6, 16, 14, 13, 4, 10, 9, 8, 7, 2, 20, 12, 19, 11, 5, 15, 3, 1, 18, 17, 6, 16, 14, 4, 13, 10, 9, 8, 7, 2, 20, 12, 19, 11, 5, 15, 3, 1, 18, 17, 6, 16, 14, 4, 13, 10, 9, 8, 7, 2, 20, 12, 19, 11, 5, 15, 3, 1, 18, 17, 6, 16, 14, 4, 13, 10, 9, 8, 7, 2, 20, 12, 19, 11, 5, 15, 3, 1, 18, 17, 6, 16, 14, 4, 13, 10, 9, 8, 7, 2, 20, 12, 19, 11, 5, 15, 3, 1, 18, 17, 6, 16, 14, 4, 13, 10, 9, 8, 7, 2, 20, 12, 19, 11, 5, 15, 3, 1, 18, 17, 6, 16, 14, 4, 13, 10, 9, 8, 7, 2, 20, 12, 19, 11, 5, 15, 3, 1, 18, 17, 6, 16, 14, 4, 13, 10, 9, 8, 7, 2, 20, 12, 19, 11, 5, 15, 3, 1, 18, 17, 6, 16, 14, 4, 13, 10, 9, 8, 7, 2, 20, 12, 19, 11, 5, 15, 3, 1, 18, 17, 6]
bestever    1445    in generation 4029
[16, 14, 13, 4, 10, 9, 8, 2, 20, 12, 19, 11, 5, 3, 1, 18, 15, 17, 7, 6, 16, 14, 13, 4, 10, 9, 8, 2, 20, 12, 19, 11, 5, 3, 1, 18, 15, 17, 7, 6, 16, 14, 4, 13, 10, 9, 8, 2, 20, 12, 19, 11, 5, 3, 1, 18, 15, 17, 7, 6, 16, 14, 4, 13, 10, 9, 8, 2, 20, 12, 19, 11, 5, 3, 1, 18, 15, 17, 7, 6, 16, 14, 4, 13, 10, 9, 8, 2, 20, 12, 19, 11, 5, 3, 1, 18, 15, 17, 7, 6, 14, 16, 4, 13, 10, 9, 8, 2, 20, 12, 19, 11, 5, 3, 1, 18, 15, 17, 7, 6, 14, 16, 4, 13, 10, 9, 8, 2, 20, 12, 19, 11, 5, 3, 1, 18, 15, 17, 7, 6, 14, 16, 4, 13, 10, 9, 8, 2, 20, 12, 19, 11, 5, 3, 1, 18, 15, 17, 7, 6, 14, 16, 4, 13, 10, 9, 8, 2, 20, 12, 19, 11, 5, 3, 1, 18, 15, 17, 7, 6, 14, 16, 4, 13, 10, 9, 8, 2, 20, 12, 19, 11, 5, 3, 1, 18, 15, 17, 7, 6]
bestever    1437    in generation 4151
[14, 16, 13, 4, 10, 9, 8, 2, 20, 12, 19, 11, 5, 3, 15, 1, 18, 17, 7, 6, 14, 16, 13, 4, 10, 9, 8, 2, 20, 12, 19, 11, 5, 3, 15, 1, 18, 17, 7, 6, 14, 16, 4, 13, 10, 9, 8, 2, 20, 12, 19, 11, 5, 3, 15, 1, 18, 17, 7, 6, 14, 16, 4, 13, 10, 9, 8, 2, 20, 12, 19, 11, 5, 3, 15, 1, 18, 17, 7, 6, 14, 16, 4, 13, 10, 9, 8, 2, 20, 12, 19, 11, 5, 3, 15, 1, 18, 17, 7, 6, 14, 16, 4, 13, 10, 9, 8, 2, 20, 12, 19, 11, 5, 3, 15, 1, 18, 17, 7, 6, 14, 16, 4, 13, 10, 9, 8, 2, 20, 12, 19, 11, 5, 3, 15, 1, 18, 17, 7, 6, 14, 16, 4, 13, 10, 9, 8, 2, 20, 12, 19, 11, 5, 3, 15, 1, 18, 17, 7, 6, 14, 16, 4, 13, 10, 9, 8, 2, 20, 12, 19, 11, 5, 3, 15, 1, 18, 17, 7, 6, 14, 16, 4, 13, 10, 9, 8, 2, 20, 12, 19, 11, 5, 3, 15, 1, 18, 17, 7, 6]
bestever    1436    in generation 4258
[16, 14, 13, 4, 10, 9, 8, 2, 20, 12, 19, 11, 5, 3, 15, 1, 18, 17, 7, 6, 16, 14, 13, 4, 10, 9, 8, 2, 20, 12, 19, 11, 5, 3, 15, 1, 18, 17, 7, 6, 16, 14, 4, 13, 10, 9, 8, 2, 20, 12, 19, 11, 5, 3, 15, 1, 18, 17, 7, 6, 16, 14, 4, 13, 10, 9, 8, 2, 20, 12, 19, 11, 5, 3, 15, 1, 18, 17, 7, 6, 16, 14, 4, 13, 10, 9, 8, 2, 20, 12, 19, 11, 5, 3, 15, 1, 18, 17, 7, 6, 16, 14, 4, 13, 10, 9, 8, 2, 20, 12, 19, 11, 5, 3, 15, 1, 18, 17, 7, 6, 16, 14, 4, 13, 10, 9, 8, 2, 20, 12, 19, 11, 5, 3, 15, 1, 18, 17, 7, 6, 16, 14, 4, 13, 10, 9, 8, 2, 20, 12, 19, 11, 5, 3, 15, 1, 18, 17, 7, 6, 16, 14, 4, 13, 10, 9, 8, 2, 20, 12, 19, 11, 5, 3, 15, 1, 18, 17, 7, 6, 16, 14, 4, 13, 10, 9, 8, 2, 20, 12, 19, 11, 5, 3, 15, 1, 18, 17, 7, 6]
bestever    1434    in generation 4405
[16, 14, 13, 4, 10, 9, 8, 2, 20, 12, 19, 11, 15, 17, 5, 3, 1, 18, 7, 6, 16, 14, 13, 4, 10, 9, 8, 2, 20, 12, 19, 11, 15, 17, 5, 3, 1, 18, 7, 6, 16, 14, 4, 13, 10, 9, 8, 2, 20, 12, 19, 11, 15, 17, 5, 3, 1, 18, 7, 6, 16, 14, 4, 13, 10, 9, 8, 2, 20, 12, 19, 11, 15, 17, 5, 3, 1, 18, 7, 6, 16, 14, 4, 13, 10, 9, 8, 2, 20, 12, 19, 11, 15, 17, 5, 3, 1, 18, 7, 6, 16, 14, 4, 13, 10, 9, 8, 2, 20, 12, 19, 11, 15, 17, 5, 3, 1, 18, 7, 6, 16, 14, 4, 13, 10, 9, 8, 2, 20, 12, 19, 11, 15, 17, 5, 3, 1, 18, 7, 6, 16, 14, 4, 13, 10, 9, 8, 2, 20, 12, 19, 11, 15, 17, 5, 3, 1, 18, 7, 6, 16, 14, 4, 13, 10, 9, 8, 2, 20, 12, 19, 11, 15, 17, 5, 3, 1, 18, 7, 6, 16, 14, 4, 13, 10, 9, 8, 2, 20, 12, 19, 11, 15, 17, 5, 3, 1, 18, 7, 6]
bestever    1431    in generation 4558
[16, 14, 13, 4, 10, 9, 8, 2, 20, 12, 19, 11, 15, 3, 17, 5, 1, 18, 7, 6, 16, 14, 13, 4, 10, 9, 8, 2, 20, 12, 19, 11, 15, 3, 17, 5, 1, 18, 7, 6, 16, 14, 4, 13, 10, 9, 8, 2, 20, 12, 19, 11, 15, 3, 17, 5, 1, 18, 7, 6, 16, 14, 4, 13, 10, 9, 8, 2, 20, 12, 19, 11, 15, 3, 17, 5, 1, 18, 7, 6, 16, 14, 4, 13, 10, 9, 8, 2, 20, 12, 19, 11, 15, 3, 17, 5, 1, 18, 7, 6, 16, 14, 4, 13, 10, 9, 8, 2, 20, 12, 19, 11, 15, 3, 17, 5, 1, 18, 7, 6, 16, 14, 4, 13, 10, 9, 8, 2, 20, 12, 19, 11, 15, 3, 17, 5, 1, 18, 7, 6, 16, 14, 4, 13, 10, 9, 8, 2, 20, 12, 19, 11, 15, 3, 17, 5, 1, 18, 7, 6, 16, 14, 4, 13, 10, 9, 8, 2, 20, 12, 19, 11, 15, 3, 17, 5, 1, 18, 7, 6, 16, 14, 4, 13, 10, 9, 8, 2, 20, 12, 19, 11, 15, 3, 17, 5, 1, 18, 7, 6]
